db/inputs/41093206498689814562156321391127777.smt2
(set-logic QF_FP)
(declare-const x0 (_ FloatingPoint 11 53))
(declare-const x1 (_ FloatingPoint 11 53))
(declare-const x2 (_ FloatingPoint 11 53))
(declare-const x3 (_ FloatingPoint 11 53))
(declare-const x4 (_ FloatingPoint 11 53))
(declare-const x5 (_ FloatingPoint 11 53))
(declare-const x6 (_ FloatingPoint 11 53))
(assert (fp.lt (fp.add RNE x3 x3) (fp.add RNE x4 x2)))
(assert (fp.geq (fp.mul RNE x6 x0) (fp.add RNE x6 x5)))
(assert (fp.geq (fp.sub RNE x6 x3) (fp.div RNE x4 x2)))
(assert (fp.lt (fp.neg x4) (fp.add RNE x5 x4)))
(assert (fp.geq (fp.neg x4) (fp.mul RNE x5 x5)))
(assert (fp.eq (fp.div RNE x5 x0) (fp.mul RNE x1 x0)))
(assert (fp.geq (fp.div RNE x3 x1) (fp.sub RNE x4 x6)))
(assert (fp.leq (fp.mul RNE x6 x4) (fp.neg x1)))
(assert (fp.eq (fp.mul RNE x0 x1) (fp.add RNE x3 x0)))
(assert (fp.leq (fp.neg x2) (fp.mul RNE x1 x5)))
(assert (fp.leq (fp.div RNE x6 x1) (fp.neg x0)))
(assert (fp.lt (fp.add RNE x0 x5) (fp.sub RNE x1 x1)))
(assert (fp.leq (fp.mul RNE x2 x1) (fp.div RNE x4 x6)))
(assert (fp.eq (fp.mul RNE x4 x0) (fp.neg x0)))
(assert (fp.lt (fp.add RNE x1 x5) (fp.add RNE x2 x4)))
(assert (fp.lt (fp.mul RNE x6 x2) (fp.mul RNE x6 x5)))
(assert (fp.lt (fp.div RNE x0 x3) (fp.div RNE x5 x6)))
(assert (fp.geq (fp.neg x4) (fp.mul RNE x0 x4)))
(check-sat)
