db/data/41093206498689814562156321391127777.z3.out
-------------------
2500.127909179
